Route #1: 35 139 26 135 11 115 30 59 40 53 108 19
Route #2: 33 43 4 107 74 136 22 132 106 57 62 102
Route #3: 50 15 121 27 129 143 63 98 88 66 37 69
Route #4: 72 150 9 45 125 131 47 20 28 117 38 153
Route #5: 39 123 70 100 94 104 17 21 76 119 148 16
Route #6: 151 97 103 133 112 87 95 105 128 146 29 67
Route #7: 73 49 34 80 75 156 23 31 85 83 114 152
Route #8: 65 154 77 120 137 113 90 82 110 61 13 12
Route #9: 142 44 89 58 3 78 46 91 52 101 92 130
Route #10: 14 25 48 71 93 140 126 2 127 6 84 64
Route #11: 118 79 10 109 41 147 81 8 138 157 60 149
Route #12: 122 24 32 141 86 145 54 124 99 155 51 134
Route #13: 144 42 111 55 7 116 56 96 36 5 68 18
Cost 30016
